1 1 2 0
1 -3 4 0
1 -3 1 0
1 3 -5 0
1 6 -7 0
1 -6 8 0
1 -6 9 0
1 -6 -4 0
1 6 10 0
1 6 11 0
1 12 8 0
1 12 4 0
1 12 -13 0
1 -12 5 0
1 12 -2 0
1 -4 14 0
1 4 -3 0
1 -4 -15 0
1 -4 -16 0
1 4 2 0
1 -2 -6 0
1 -9 17 0
1 9 12 0
1 -9 -18 0
1 -5 -12 0
1 5 15 0
1 -5 18 0
1 -5 19 0
1 -5 -20 0
1 21 13 0
1 -21 -10 0
1 -22 -7 0
1 -22 -4 0
1 -22 -10 0
1 -16 14 0
1 -16 -23 0
1 -16 24 0
1 16 25 0
1 14 7 0
1 14 -26 0
1 -14 4 0
1 14 -10 0
1 14 16 0
1 -14 -27 0
1 14 -2 0
1 -10 28 0
1 10 22 0
1 -10 12 0
1 10 -29 0
1 10 30 0
1 -10 -21 0
1 -8 -28 0
1 -8 31 0
1 8 -22 0
1 -8 -32 0
1 -8 -10 0
1 -8 -16 0
1 8 -21 0
1 -8 -33 0
1 -13 -7 0
1 -13 34 0
1 13 35 0
1 -13 -22 0
1 -13 12 0
1 -13 36 0
1 13 -37 0
1 13 -15 0
1 -13 -16 0
1 13 21 0
1 7 -35 0
1 -32 23 0
1 -32 -27 0
1 38 -23 0
1 -38 32 0
1 38 -27 0
1 -29 23 0
1 -29 -37 0
1 29 10 0
1 29 27 0
1 28 -27 0
1 -27 28 0
1 27 -38 0
1 -27 -14 0
1 27 24 0
1 -27 39 0
1 -27 29 0
1 -27 -32 0
1 -27 -40 0
1 24 -41 0
1 24 -39 0
1 24 29 0
1 -25 14 0
1 -25 42 0
1 25 -29 0
1 25 -32 0
1 25 -43 0
1 25 -33 0
1 -23 -44 0
1 23 -33 0
1 45 46 0
1 -45 -47 0
1 -45 -1 0
1 -47 -48 0
1 47 49 0
1 -47 50 0
1 -11 -46 0
1 -11 51 0
1 11 52 0
1 11 53 0
1 -54 -48 0
1 -54 -55 0
1 -54 51 0
1 54 49 0
1 -46 56 0
1 -46 50 0
1 46 -18 0
1 46 -11 0
1 -46 -45 0
1 50 -17 0
1 -50 47 0
1 -50 57 0
1 50 -58 0
1 50 19 0
1 -50 11 0
1 48 -59 0
1 48 56 0
1 -48 60 0
1 -48 -47 0
1 -48 -49 0
1 48 -58 0
1 -48 -61 0
1 48 -11 0
1 -49 -62 0
1 49 61 0
1 -49 -45 0
1 -19 -46 0
1 19 55 0
1 19 -52 0
1 19 -61 0
1 -19 -5 0
1 17 55 0
1 17 -60 0
1 18 -46 0
1 18 -55 0
1 18 63 0
1 -18 -64 0
1 -18 -50 0
1 18 -65 0
1 -26 -55 0
1 26 62 0
1 -26 -63 0
1 26 64 0
1 26 -50 0
1 26 -52 0
1 -26 5 0
1 -51 -54 0
1 51 -66 0
1 51 -18 0
1 -53 67 0
1 -53 35 0
1 -53 54 0
1 53 -66 0
1 -53 37 0
1 -53 -15 0
1 -53 18 0
1 -53 11 0
1 -55 67 0
1 -55 -26 0
1 55 -68 0
1 -55 -66 0
1 55 -69 0
1 55 -18 0
1 55 19 0
1 52 70 0
1 -52 56 0
1 52 -26 0
1 -52 -58 0
1 -52 18 0
1 52 -19 0
1 -15 7 0
1 15 -63 0
1 15 -32 0
1 -15 58 0
1 35 7 0
1 -35 -53 0
1 -35 -71 0
1 37 -72 0
1 -37 -63 0
1 37 64 0
1 -37 73 0
1 37 13 0
1 37 29 0
1 37 -69 0
1 37 71 0
1 37 -74 0
1 -37 20 0
1 -34 -72 0
1 34 7 0
1 -34 -70 0
1 34 -51 0
1 -34 75 0
1 34 -13 0
1 34 -37 0
1 -64 76 0
1 -64 -42 0
1 64 -33 0
1 74 35 0
1 74 26 0
1 74 -64 0
1 74 76 0
1 -74 36 0
1 -74 37 0
1 74 -44 0
1 63 -77 0
1 -63 76 0
1 -63 66 0
1 -63 -15 0
1 63 18 0
1 -63 -71 0
1 -71 67 0
1 71 -34 0
1 71 63 0
1 71 76 0
1 -71 -78 0
1 -71 -37 0
1 71 79 0
1 36 8 0
1 36 75 0
1 -36 -66 0
1 36 -10 0
1 -36 20 0
1 -33 -67 0
1 33 72 0
1 -33 23 0
1 -33 64 0
1 -33 -36 0
1 -33 -73 0
1 33 -13 0
1 -33 -10 0
1 -33 -25 0
1 33 74 0
1 -33 20 0
1 -42 -80 0
1 -42 -31 0
1 42 -81 0
1 -42 -30 0
1 -42 -44 0
1 -42 -20 0
1 44 -72 0
1 44 -64 0
1 44 42 0
1 44 25 0
1 44 -74 0
1 -44 79 0
1 -73 82 0
1 -73 39 0
1 73 4 0
1 73 83 0
1 -73 84 0
1 73 -40 0
1 73 -44 0
1 -72 85 0
1 72 34 0
1 -72 86 0
1 72 42 0
1 -72 36 0
1 -72 -83 0
1 72 84 0
1 -72 44 0
1 75 87 0
1 -75 -76 0
1 75 -9 0
1 75 88 0
1 -75 -37 0
1 75 -83 0
1 -75 -89 0
1 -75 44 0
1 -20 76 0
1 20 75 0
1 -20 -37 0
1 20 5 0
1 -20 -83 0
1 -20 44 0
1 20 90 0
1 -39 23 0
1 39 31 0
1 39 -24 0
1 39 76 0
1 -39 -30 0
1 39 -25 0
1 -39 -27 0
1 40 72 0
1 40 -80 0
1 -40 24 0
1 -40 -81 0
1 40 25 0
1 -82 -72 0
1 82 -80 0
1 82 -31 0
1 -82 91 0
1 -82 73 0
1 -82 81 0
1 84 -31 0
1 -84 91 0
1 -84 41 0
1 -84 81 0
1 -84 -43 0
1 30 -92 0
1 -30 31 0
1 -30 42 0
1 -30 10 0
1 -31 -92 0
1 -31 82 0
1 31 39 0
1 -31 93 0
1 -31 -84 0
1 81 94 0
1 -81 -82 0
1 81 13 0
1 81 -95 0
1 -81 96 0
1 -81 -40 0
1 80 -94 0
1 -80 -42 0
1 -80 84 0
1 -97 -31 0
1 97 -91 0
1 -97 30 0
1 -97 -98 0
1 -93 31 0
1 -93 -41 0
1 93 83 0
1 -99 31 0
1 -99 -94 0
1 99 -100 0
1 99 43 0
1 -100 -31 0
1 -100 91 0
1 100 30 0
1 100 -96 0
1 -100 -98 0
1 98 82 0
1 98 -101 0
1 -98 -100 0
1 98 -93 0
1 98 102 0
1 41 99 0
1 -41 97 0
1 41 -93 0
1 -43 103 0
1 -43 -100 0
1 43 -84 0
1 -91 104 0
1 -91 -92 0
1 91 99 0
1 91 -105 0
1 91 -97 0
1 -91 -82 0
1 -91 43 0
1 -91 -100 0
1 -91 -84 0
1 106 -107 0
1 -106 -108 0
1 106 45 0
1 -109 -110 0
1 -109 111 0
1 -109 107 0
1 109 108 0
1 109 -106 0
1 112 113 0
1 114 -111 0
1 -114 115 0
1 114 54 0
1 -114 -116 0
1 -114 107 0
1 -114 -112 0
1 -108 109 0
1 108 65 0
1 108 -117 0
1 -108 -106 0
1 111 -108 0
1 -111 -62 0
1 -111 118 0
1 111 109 0
1 107 119 0
1 107 -120 0
1 -107 114 0
1 -107 109 0
1 -107 121 0
1 107 112 0
1 107 -106 0
1 -110 -122 0
1 110 -114 0
1 -110 -112 0
1 61 115 0
1 61 -116 0
1 -61 49 0
1 61 -19 0
1 -61 -123 0
1 -61 -124 0
1 -60 48 0
1 -60 -116 0
1 60 -108 0
1 60 124 0
1 -65 125 0
1 65 48 0
1 65 -62 0
1 -65 111 0
1 65 116 0
1 -65 -126 0
1 65 -18 0
1 -65 108 0
1 -65 121 0
1 65 124 0
1 62 108 0
1 62 111 0
1 62 -120 0
1 -62 -115 0
1 62 49 0
1 62 -65 0
1 -62 127 0
1 62 -124 0
1 124 70 0
1 -124 -62 0
1 124 60 0
1 124 -116 0
1 124 -58 0
1 -124 -65 0
1 -124 112 0
1 -116 -62 0
1 116 114 0
1 -116 128 0
1 -116 -61 0
1 127 129 0
1 -127 -130 0
1 -127 -119 0
1 -127 131 0
1 127 -61 0
1 -127 132 0
1 115 130 0
1 115 -62 0
1 115 -60 0
1 -115 -133 0
1 -115 114 0
1 58 -134 0
1 58 49 0
1 58 -50 0
1 58 15 0
1 -58 -131 0
1 58 135 0
1 56 -125 0
1 56 -48 0
1 -56 35 0
1 56 -119 0
1 -56 126 0
1 56 -50 0
1 56 -135 0
1 69 -125 0
1 -69 59 0
1 69 116 0
1 -69 -136 0
1 -69 -52 0
1 69 -137 0
1 69 124 0
1 70 34 0
1 70 -124 0
1 -70 -135 0
1 -125 -67 0
1 -125 -62 0
1 125 134 0
1 -125 -66 0
1 134 -67 0
1 -134 62 0
1 -134 66 0
1 -134 69 0
1 134 58 0
1 -134 -65 0
1 -134 79 0
1 135 56 0
1 135 138 0
1 -135 -139 0
1 -135 -140 0
1 135 58 0
1 135 -65 0
1 135 -141 0
1 126 129 0
1 126 62 0
1 126 139 0
1 126 65 0
1 -126 135 0
1 -126 -142 0
1 -66 -59 0
1 66 55 0
1 66 51 0
1 -66 63 0
1 -66 -140 0
1 66 -136 0
1 66 -52 0
1 -67 -129 0
1 -67 -51 0
1 67 66 0
1 -67 52 0
1 -67 -53 0
1 -67 71 0
1 67 33 0
1 -78 125 0
1 78 68 0
1 -78 143 0
1 -78 -42 0
1 78 -57 0
1 78 144 0
1 -78 71 0
1 -78 79 0
1 79 125 0
1 -79 -59 0
1 79 78 0
1 79 -136 0
1 -79 -145 0
1 -79 44 0
1 -146 -67 0
1 146 70 0
1 -146 -147 0
1 -146 -148 0
1 146 -87 0
1 146 76 0
1 146 149 0
1 146 79 0
1 -57 -146 0
1 -57 -76 0
1 -57 -78 0
1 -57 -150 0
1 -57 149 0
1 57 -89 0
1 57 -79 0
1 -59 48 0
1 -59 -151 0
1 -59 152 0
1 -59 78 0
1 59 -153 0
1 -136 70 0
1 136 148 0
1 -136 -138 0
1 136 78 0
1 -136 66 0
1 136 -149 0
1 136 -153 0
1 -136 141 0
1 136 -79 0
1 -76 68 0
1 76 64 0
1 76 -144 0
1 76 74 0
1 -76 20 0
1 154 68 0
1 154 -75 0
1 -154 -57 0
1 -154 145 0
1 -154 144 0
1 -154 141 0
1 -87 -82 0
1 87 152 0
1 -87 -75 0
1 87 145 0
1 87 -155 0
1 -89 -68 0
1 -89 87 0
1 -89 77 0
1 89 156 0
1 89 -153 0
1 -89 20 0
1 143 144 0
1 -143 157 0
1 143 94 0
1 -143 87 0
1 -143 -96 0
1 143 -83 0
1 -143 -89 0
1 -143 -79 0
1 144 83 0
1 144 89 0
1 144 -154 0
1 -68 -157 0
1 -68 55 0
1 68 148 0
1 68 76 0
1 68 78 0
1 68 -149 0
1 -68 -79 0
1 145 -148 0
1 -145 89 0
1 -145 154 0
1 -86 72 0
1 86 80 0
1 -86 148 0
1 86 158 0
1 86 -73 0
1 86 81 0
1 -86 -83 0
1 -83 80 0
1 -83 -77 0
1 -83 -73 0
1 -83 -144 0
1 83 155 0
1 83 20 0
1 -94 -85 0
1 94 -80 0
1 94 156 0
1 94 90 0
1 96 -85 0
1 -96 94 0
1 96 -77 0
1 -96 158 0
1 -96 -81 0
1 96 -100 0
1 -96 144 0
1 96 90 0
1 158 159 0
1 -158 -92 0
1 -158 87 0
1 158 -64 0
1 -158 -160 0
1 158 83 0
1 158 -89 0
1 -155 -161 0
1 155 96 0
1 155 -89 0
1 -155 162 0
1 -77 163 0
1 -77 157 0
1 77 87 0
1 -77 -160 0
1 77 -96 0
1 77 83 0
1 77 89 0
1 -156 157 0
1 -156 -87 0
1 -156 164 0
1 156 96 0
1 156 -89 0
1 92 85 0
1 92 -80 0
1 92 157 0
1 92 91 0
1 -92 -158 0
1 -92 -88 0
1 92 165 0
1 -92 -81 0
1 92 -155 0
1 92 -90 0
1 -161 -85 0
1 -161 30 0
1 161 155 0
1 -104 85 0
1 -104 163 0
1 -104 -166 0
1 104 -165 0
1 -104 -95 0
1 -104 167 0
1 -104 155 0
1 -104 90 0
1 -103 -85 0
1 -103 -166 0
1 -165 168 0
1 165 104 0
1 165 103 0
1 -165 161 0
1 165 -96 0
1 -85 -72 0
1 85 169 0
1 -85 -92 0
1 85 -161 0
1 -85 96 0
1 -85 170 0
1 85 171 0
1 -88 159 0
1 88 94 0
1 -88 -172 0
1 -88 -75 0
1 -88 173 0
1 90 -174 0
1 -90 -159 0
1 -90 -92 0
1 90 -103 0
1 90 -88 0
1 -90 161 0
1 -168 -159 0
1 168 175 0
1 168 165 0
1 -168 43 0
1 168 98 0
1 -101 168 0
1 101 85 0
1 -101 41 0
1 -101 -160 0
1 171 175 0
1 171 176 0
1 -171 -165 0
1 171 -177 0
1 178 -175 0
1 178 166 0
1 -178 176 0
1 -178 -165 0
1 178 167 0
1 -178 177 0
1 178 102 0
1 -178 -171 0
1 167 -168 0
1 167 179 0
1 167 -101 0
1 -167 103 0
1 167 180 0
1 167 171 0
1 166 168 0
1 -166 31 0
1 166 -181 0
1 166 179 0
1 -95 168 0
1 -95 104 0
1 -95 182 0
1 -95 -178 0
1 -95 -103 0
1 -95 183 0
1 -95 -171 0
1 175 -168 0
1 175 -104 0
1 -175 80 0
1 175 -181 0
1 -175 -184 0
1 175 182 0
1 -175 101 0
1 -175 95 0
1 -175 -180 0
1 -185 166 0
1 185 -176 0
1 -185 177 0
1 179 176 0
1 -179 167 0
1 179 -102 0
1 -186 -166 0
1 -186 105 0
1 186 -187 0
1 -186 -177 0
1 187 -176 0
1 187 -167 0
1 -187 -186 0
1 -102 -188 0
1 -102 -187 0
1 -102 176 0
1 -102 -178 0
1 -102 98 0
1 102 186 0
1 102 171 0
1 -176 41 0
1 176 189 0
1 -176 179 0
1 -176 -178 0
1 176 190 0
1 176 186 0
1 176 -171 0
1 177 188 0
1 177 -181 0
1 177 187 0
1 -177 43 0
1 177 -171 0
1 105 -191 0
1 105 192 0
1 105 -190 0
1 -105 -193 0
1 -105 185 0
1 -194 195 0
1 194 196 0
1 -197 198 0
1 -197 195 0
1 113 199 0
1 113 -200 0
1 -113 201 0
1 113 202 0
1 -199 201 0
1 -199 196 0
1 199 -202 0
1 -200 120 0
1 200 203 0
1 -200 199 0
1 200 -121 0
1 -200 -194 0
1 196 -203 0
1 -196 -123 0
1 -196 -204 0
1 -196 194 0
1 -198 205 0
1 198 197 0
1 -198 -195 0
1 198 113 0
1 195 198 0
1 195 113 0
1 195 -194 0
1 123 110 0
1 123 200 0
1 123 -206 0
1 123 -201 0
1 -123 107 0
1 -123 61 0
1 -123 207 0
1 -123 202 0
1 203 -200 0
1 -203 206 0
1 203 -201 0
1 203 -107 0
1 203 -196 0
1 -203 123 0
1 -203 -202 0
1 -121 200 0
1 121 -206 0
1 -121 201 0
1 121 -208 0
1 121 207 0
1 120 -62 0
1 -120 107 0
1 120 196 0
1 120 -207 0
1 -120 202 0
1 201 -199 0
1 -201 137 0
1 201 113 0
1 202 -120 0
1 -202 203 0
1 -202 199 0
1 202 -131 0
1 206 209 0
1 206 207 0
1 -206 120 0
1 206 -123 0
1 -206 -113 0
1 -207 -203 0
1 -207 123 0
1 207 113 0
1 -207 -210 0
1 -131 -211 0
1 131 -108 0
1 -131 -119 0
1 131 110 0
1 -131 115 0
1 -131 -201 0
1 131 208 0
1 -131 58 0
1 -131 202 0
1 119 -212 0
1 -119 -110 0
1 -119 115 0
1 -119 127 0
1 137 212 0
1 137 -211 0
1 137 130 0
1 -137 122 0
1 -137 118 0
1 -137 -117 0
1 -137 127 0
1 -137 202 0
1 -130 -118 0
1 130 -208 0
1 -130 137 0
1 130 127 0
1 130 -202 0
1 213 129 0
1 213 139 0
1 -213 214 0
1 -211 -215 0
1 211 119 0
1 211 140 0
1 -211 142 0
1 -208 216 0
1 -208 212 0
1 -208 -130 0
1 208 -217 0
1 208 -131 0
1 208 -218 0
1 212 216 0
1 -212 -219 0
1 -212 -208 0
1 -212 -137 0
1 212 121 0
1 -212 -218 0
1 -140 -122 0
1 -140 -126 0
1 -140 213 0
1 -140 220 0
1 140 -127 0
1 129 211 0
1 129 -122 0
1 129 -213 0
1 129 220 0
1 129 -127 0
1 -139 211 0
1 -139 122 0
1 -139 -126 0
1 -139 78 0
1 -142 -216 0
1 142 -118 0
1 -142 -133 0
1 142 -117 0
1 117 118 0
1 117 221 0
1 117 152 0
1 117 222 0
1 117 -139 0
1 -117 140 0
1 117 137 0
1 117 223 0
1 117 142 0
1 -118 111 0
1 -118 -141 0
1 118 142 0
1 220 130 0
1 220 224 0
1 220 -225 0
1 220 139 0
1 220 140 0
1 220 -142 0
1 -122 -226 0
1 122 221 0
1 122 225 0
1 122 -137 0
1 122 227 0
1 122 -142 0
1 -138 -133 0
1 138 128 0
1 -138 -76 0
1 138 134 0
1 138 -228 0
1 -141 -125 0
1 -141 -135 0
1 -141 133 0
1 -141 -126 0
1 -141 -138 0
1 -141 -134 0
1 -141 117 0
1 -141 218 0
1 152 133 0
1 152 -128 0
1 -152 132 0
1 152 -117 0
1 152 153 0
1 -153 133 0
1 -153 132 0
1 228 -229 0
1 228 -148 0
1 -228 -152 0
1 228 -128 0
1 -228 -139 0
1 228 230 0
1 -228 153 0
1 128 229 0
1 -128 231 0
1 128 232 0
1 128 -138 0
1 -128 228 0
1 -128 -142 0
1 -132 -221 0
1 132 138 0
1 132 -127 0
1 132 -223 0
1 -133 229 0
1 133 -115 0
1 133 -221 0
1 -133 233 0
1 133 230 0
1 133 -153 0
1 -133 -142 0
1 -148 -68 0
1 -148 221 0
1 148 234 0
1 -148 -136 0
1 -148 -145 0
1 -148 235 0
1 -149 -236 0
1 149 -59 0
1 149 146 0
1 -149 -68 0
1 149 234 0
1 -149 136 0
1 -149 -145 0
1 149 83 0
1 -231 -236 0
1 231 -151 0
1 231 -145 0
1 237 -151 0
1 237 68 0
1 -237 -238 0
1 -237 -235 0
1 -236 -239 0
1 -236 231 0
1 -236 240 0
1 236 241 0
1 -236 -153 0
1 -240 157 0
1 240 -148 0
1 240 152 0
1 240 -242 0
1 -240 -164 0
1 -240 -243 0
1 -240 237 0
1 240 149 0
1 240 -153 0
1 235 -239 0
1 235 148 0
1 235 -152 0
1 235 -244 0
1 -235 230 0
1 -235 -237 0
1 -234 -239 0
1 234 148 0
1 234 -152 0
1 -234 -245 0
1 -234 242 0
1 -234 230 0
1 -234 237 0
1 234 235 0
1 -157 92 0
1 -157 229 0
1 -157 -240 0
1 157 150 0
1 -157 145 0
1 241 230 0
1 241 150 0
1 -241 144 0
1 163 -246 0
1 163 147 0
1 -164 147 0
1 164 247 0
1 -164 240 0
1 -164 -103 0
1 -164 -244 0
1 -164 150 0
1 164 -248 0
1 -147 -159 0
1 -147 172 0
1 147 -164 0
1 150 -157 0
1 -150 -160 0
1 -150 -164 0
1 -150 57 0
1 -150 237 0
1 -151 -157 0
1 151 242 0
1 151 238 0
1 -151 -241 0
1 151 237 0
1 -238 -163 0
1 238 -249 0
1 238 -241 0
1 238 -237 0
1 159 -239 0
1 159 -247 0
1 -159 250 0
1 -159 -77 0
1 -159 -158 0
1 159 -88 0
1 159 -150 0
1 -159 251 0
1 159 156 0
1 159 155 0
1 159 -90 0
1 -160 -159 0
1 -160 247 0
1 -160 250 0
1 -160 101 0
1 160 88 0
1 -160 -242 0
1 160 -150 0
1 -160 251 0
1 -160 248 0
1 -160 -155 0
1 173 -147 0
1 173 250 0
1 -173 88 0
1 -173 -150 0
1 -173 251 0
1 -173 -252 0
1 -173 171 0
1 172 250 0
1 172 253 0
1 172 251 0
1 172 90 0
1 -250 254 0
1 -250 -160 0
1 250 255 0
1 -250 170 0
1 248 -159 0
1 -248 -163 0
1 -248 172 0
1 248 160 0
1 248 256 0
1 -247 -159 0
1 247 -68 0
1 247 257 0
1 -247 -258 0
1 251 -172 0
1 -170 -175 0
1 170 250 0
1 -170 182 0
1 170 259 0
1 170 -253 0
1 -170 95 0
1 -170 -252 0
1 182 85 0
1 182 250 0
1 182 -253 0
1 -182 162 0
1 182 248 0
1 -182 -252 0
1 -182 -90 0
1 -255 169 0
1 -255 250 0
1 255 -253 0
1 -255 -260 0
1 -255 -261 0
1 255 252 0
1 255 -262 0
1 184 -174 0
1 -184 -253 0
1 -184 -260 0
1 184 95 0
1 184 -248 0
1 -184 -255 0
1 -253 263 0
1 -253 158 0
1 -253 -172 0
1 -253 -193 0
1 253 180 0
1 162 263 0
1 162 191 0
1 162 -181 0
1 -162 -182 0
1 -162 193 0
1 162 -180 0
1 259 -182 0
1 259 -264 0
1 259 -258 0
1 -252 265 0
1 -252 -254 0
1 252 -182 0
1 -252 266 0
1 252 -258 0
1 -252 170 0
1 180 -175 0
1 180 -177 0
1 -180 162 0
1 181 169 0
1 181 -175 0
1 -181 166 0
1 181 260 0
1 -181 -167 0
1 181 162 0
1 193 174 0
1 193 -267 0
1 193 -261 0
1 193 183 0
1 -193 268 0
1 193 -162 0
1 -191 169 0
1 191 -265 0
1 191 105 0
1 -191 -267 0
1 -191 193 0
1 261 269 0
1 -261 270 0
1 261 188 0
1 261 -191 0
1 261 271 0
1 -169 269 0
1 -169 270 0
1 169 -85 0
1 169 188 0
1 -169 272 0
1 -169 -190 0
1 -169 -193 0
1 -260 174 0
1 -260 263 0
1 260 -181 0
1 -260 -88 0
1 -260 -180 0
1 260 -255 0
1 -174 -269 0
1 174 -263 0
1 174 184 0
1 174 -266 0
1 -174 -193 0
1 174 -255 0
1 -174 -90 0
1 190 -105 0
1 190 176 0
1 190 -177 0
1 -190 -102 0
1 -188 169 0
1 188 263 0
1 -188 273 0
1 188 -267 0
1 188 105 0
1 -188 177 0
1 271 273 0
1 271 -192 0
1 -271 -261 0
1 -271 -268 0
1 270 274 0
1 270 273 0
1 -270 261 0
1 -270 -183 0
1 270 268 0
1 270 275 0
1 268 -271 0
1 268 -167 0
1 -267 -188 0
1 -267 -191 0
1 267 -271 0
1 -267 193 0
1 -267 268 0
1 267 -276 0
1 267 277 0
1 183 273 0
1 -183 191 0
1 -183 190 0
1 183 -278 0
1 -273 -269 0
1 -273 279 0
1 273 183 0
1 280 267 0
1 280 189 0
1 280 -268 0
1 277 267 0
1 -277 -281 0
1 -282 -279 0
1 282 281 0
1 -276 -192 0
1 276 189 0
1 276 -282 0
1 276 -281 0
1 276 -278 0
1 -281 -102 0
1 -281 -277 0
1 189 176 0
1 -189 -282 0
1 -189 280 0
1 -189 -271 0
1 -189 276 0
1 192 -271 0
1 192 276 0
1 -217 -283 0
1 -217 208 0
1 -209 -212 0
1 209 207 0
1 209 -202 0
1 284 205 0
1 284 285 0
1 284 208 0
1 -216 286 0
1 -283 224 0
1 -283 225 0
1 -283 -227 0
1 -283 -204 0
1 -204 209 0
1 -204 283 0
1 204 -217 0
1 204 287 0
1 204 218 0
1 205 -209 0
1 205 -288 0
1 -288 205 0
1 -288 -195 0
1 225 -211 0
1 -225 210 0
1 225 283 0
1 -225 289 0
1 225 -285 0
1 -225 220 0
1 -218 286 0
1 -218 -212 0
1 218 225 0
1 218 -285 0
1 218 213 0
1 -218 -220 0
1 -218 -210 0
1 -224 122 0
1 224 -289 0
1 -224 -220 0
1 -224 204 0
1 -227 286 0
1 227 224 0
1 -227 289 0
1 -227 290 0
1 227 210 0
1 285 -286 0
1 285 291 0
1 -285 292 0
1 -285 221 0
1 -285 -224 0
1 -285 284 0
1 -285 -293 0
1 -285 294 0
1 285 227 0
1 286 -216 0
1 286 291 0
1 -286 -221 0
1 -286 -284 0
1 286 -294 0
1 286 218 0
1 286 -202 0
1 -210 -216 0
1 210 224 0
1 -210 284 0
1 210 -293 0
1 210 -295 0
1 -221 -286 0
1 -221 -118 0
1 -221 214 0
1 221 -117 0
1 -221 223 0
1 -221 -132 0
1 -223 286 0
1 -223 -122 0
1 223 132 0
1 -223 290 0
1 -223 -149 0
1 -292 286 0
1 -292 219 0
1 -292 -296 0
1 -292 -226 0
1 292 -297 0
1 -292 -133 0
1 292 285 0
1 292 -290 0
1 292 -214 0
1 294 133 0
1 -294 297 0
1 -214 -246 0
1 214 -215 0
1 -214 -221 0
1 214 -224 0
1 -214 230 0
1 -214 223 0
1 -214 227 0
1 -215 246 0
1 215 298 0
1 -215 -292 0
1 -215 -221 0
1 215 224 0
1 215 244 0
1 215 -214 0
1 -290 299 0
1 -290 292 0
1 -290 -221 0
1 -290 224 0
1 -290 208 0
1 -290 -293 0
1 -290 -294 0
1 219 -212 0
1 219 300 0
1 -219 -291 0
1 -219 292 0
1 219 301 0
1 219 -290 0
1 -219 302 0
1 -219 293 0
1 -219 -294 0
1 229 157 0
1 -229 -226 0
1 229 128 0
1 -230 -215 0
1 -230 229 0
1 -230 234 0
1 230 -296 0
1 -246 297 0
1 246 233 0
1 246 -234 0
1 -244 233 0
1 -244 232 0
1 -244 -234 0
1 -244 -214 0
1 -244 222 0
1 222 -303 0
1 -297 246 0
1 -297 118 0
1 297 304 0
1 -297 294 0
1 -297 -222 0
1 -296 226 0
1 296 -230 0
1 296 -294 0
1 226 -305 0
1 -226 -122 0
1 226 -306 0
1 226 -301 0
1 226 -307 0
1 239 -151 0
1 239 -233 0
1 -239 232 0
1 -239 -234 0
1 -239 -240 0
1 239 -308 0
1 239 235 0
1 -242 236 0
1 -242 -239 0
1 -242 -234 0
1 -242 -160 0
1 -242 -240 0
1 -242 301 0
1 242 -238 0
1 242 -308 0
1 242 235 0
1 -303 309 0
1 303 -305 0
1 303 151 0
1 303 304 0
1 -303 -245 0
1 303 243 0
1 303 -238 0
1 -303 -308 0
1 303 -310 0
1 304 -303 0
1 304 311 0
1 304 -151 0
1 -304 306 0
1 -304 -310 0
1 -310 303 0
1 310 239 0
1 310 -246 0
1 -310 312 0
1 310 232 0
1 310 -304 0
1 310 313 0
1 -232 303 0
1 232 -312 0
1 -232 128 0
1 308 -303 0
1 -308 239 0
1 -308 233 0
1 308 -244 0
1 308 -314 0
1 -233 -239 0
1 233 246 0
1 233 315 0
1 -233 316 0
1 -233 244 0
1 233 -307 0
1 -249 311 0
1 -249 -151 0
1 -249 232 0
1 -249 -316 0
1 249 -245 0
1 249 243 0
1 262 -317 0
1 262 318 0
1 -262 247 0
1 -262 -319 0
1 262 -255 0
1 -262 320 0
1 262 310 0
1 -257 318 0
1 -257 -232 0
1 -257 319 0
1 257 -251 0
1 311 303 0
1 -311 -321 0
1 -311 254 0
1 -311 -257 0
1 311 -258 0
1 -311 262 0
1 -243 254 0
1 243 257 0
1 243 249 0
1 243 -304 0
1 243 258 0
1 -309 312 0
1 309 249 0
1 -309 -245 0
1 245 -303 0
1 245 309 0
1 245 321 0
1 245 -322 0
1 245 312 0
1 245 -323 0
1 245 262 0
1 -258 -317 0
1 -258 -259 0
1 -258 243 0
1 -258 324 0
1 -258 -251 0
1 258 -180 0
1 -254 -248 0
1 -254 -181 0
1 -254 247 0
1 -254 -250 0
1 -254 259 0
1 254 -324 0
1 254 -258 0
1 -264 317 0
1 264 265 0
1 -264 325 0
1 264 -243 0
1 264 319 0
1 -264 -324 0
1 264 326 0
1 265 -311 0
1 265 -191 0
1 -265 -327 0
1 265 325 0
1 265 -319 0
1 -318 328 0
1 318 -274 0
1 -318 -263 0
1 318 147 0
1 -318 329 0
1 318 -266 0
1 318 -324 0
1 318 264 0
1 -324 -328 0
1 324 -329 0
1 324 -258 0
1 -317 -151 0
1 317 -254 0
1 317 330 0
1 317 323 0
1 -319 -331 0
1 -319 -321 0
1 319 -317 0
1 -319 330 0
1 -319 323 0
1 319 264 0
1 266 263 0
1 266 -325 0
1 266 -260 0
1 -266 -323 0
1 -266 -324 0
1 266 162 0
1 263 188 0
1 263 -325 0
1 263 -259 0
1 -263 260 0
1 -263 324 0
1 -332 174 0
1 332 -333 0
1 -332 260 0
1 332 334 0
1 -332 335 0
1 274 174 0
1 -274 327 0
1 -274 336 0
1 -274 333 0
1 274 -260 0
1 274 -332 0
1 274 -324 0
1 -274 -326 0
1 274 -256 0
1 274 -335 0
1 -325 274 0
1 -325 265 0
1 -325 272 0
1 -325 332 0
1 256 269 0
1 256 274 0
1 256 -263 0
1 256 -265 0
1 -256 -325 0
1 256 266 0
1 -256 -248 0
1 256 -278 0
1 -327 -329 0
1 -327 -264 0
1 -326 -329 0
1 326 -332 0
1 -272 269 0
1 -272 -169 0
1 -272 273 0
1 272 -325 0
1 -272 260 0
1 -272 -334 0
1 -272 335 0
1 -269 328 0
1 -269 -169 0
1 -269 -333 0
1 -269 334 0
1 -279 -325 0
1 279 -333 0
1 -279 -334 0
1 279 278 0
1 278 -273 0
1 278 335 0
1 -333 -269 0
1 333 -253 0
1 333 -332 0
1 -335 269 0
1 335 274 0
1 -335 -162 0
1 336 -269 0
1 -336 -272 0
1 -334 -269 0
1 334 -336 0
1 -334 272 0
1 334 278 0
1 -291 286 0
1 -291 -337 0
1 291 338 0
1 291 293 0
1 -291 287 0
1 293 -338 0
1 -293 289 0
1 293 -285 0
1 293 -339 0
1 -293 287 0
1 300 -340 0
1 300 219 0
1 300 -246 0
1 300 -338 0
1 300 302 0
1 -300 339 0
1 302 -337 0
1 302 338 0
1 -302 -341 0
1 -302 -244 0
1 302 290 0
1 338 283 0
1 338 306 0
1 -338 293 0
1 -338 287 0
1 -287 338 0
1 -287 306 0
1 -287 -342 0
1 337 291 0
1 337 302 0
1 337 -293 0
1 337 339 0
1 -339 300 0
1 -339 -293 0
1 -339 343 0
1 -299 340 0
1 299 239 0
1 -299 -301 0
1 299 -290 0
1 -299 287 0
1 301 -340 0
1 -301 219 0
1 -301 299 0
1 301 215 0
1 301 -226 0
1 301 344 0
1 301 242 0
1 301 296 0
1 305 -340 0
1 -305 298 0
1 305 344 0
1 -305 -341 0
1 -305 296 0
1 -306 338 0
1 306 -344 0
1 -306 345 0
1 306 295 0
1 341 -300 0
1 341 346 0
1 341 306 0
1 341 -301 0
1 341 307 0
1 -340 -346 0
1 -340 316 0
1 340 -301 0
1 -340 341 0
1 -340 -347 0
1 -340 320 0
1 -344 -299 0
1 -344 -301 0
1 -344 -295 0
1 -295 305 0
1 295 -300 0
1 295 -210 0
1 295 -344 0
1 295 -302 0
1 -295 -347 0
1 -307 -340 0
1 -307 -298 0
1 307 226 0
1 307 233 0
1 307 316 0
1 -307 341 0
1 -307 345 0
1 307 -222 0
1 -316 -340 0
1 -316 298 0
1 316 297 0
1 316 -341 0
1 316 -345 0
1 -316 -296 0
1 320 -348 0
1 320 -349 0
1 320 350 0
1 320 233 0
1 320 351 0
1 -320 -308 0
1 320 262 0
1 352 348 0
1 352 -349 0
1 352 350 0
1 -352 -257 0
1 352 341 0
1 -352 353 0
1 352 -351 0
1 352 320 0
1 353 -305 0
1 353 354 0
1 353 355 0
1 -353 312 0
1 -353 214 0
1 -353 356 0
1 -353 320 0
1 298 215 0
1 -298 -322 0
1 -298 316 0
1 -298 356 0
1 298 -320 0
1 -345 357 0
1 -345 -290 0
1 345 -347 0
1 348 -357 0
1 -348 352 0
1 348 -316 0
1 -348 -345 0
1 348 347 0
1 -348 320 0
1 313 350 0
1 -313 232 0
1 -312 309 0
1 312 -245 0
1 -312 308 0
1 -356 309 0
1 -356 -298 0
1 -356 -358 0
1 356 -245 0
1 -356 353 0
1 -356 -264 0
1 -322 309 0
1 322 357 0
1 322 -350 0
1 -322 -315 0
1 322 359 0
1 -322 353 0
1 322 356 0
1 351 -331 0
1 -351 -312 0
1 -351 222 0
1 -351 323 0
1 350 -321 0
1 350 -322 0
1 -350 297 0
1 350 356 0
1 350 -313 0
1 358 -360 0
1 -358 355 0
1 358 322 0
1 358 312 0
1 -358 352 0
1 358 361 0
1 349 -360 0
1 -349 -362 0
1 349 312 0
1 349 -361 0
1 349 -363 0
1 349 -356 0
1 -323 311 0
1 323 319 0
1 323 266 0
1 323 -363 0
1 323 351 0
1 -321 -317 0
1 -321 -355 0
1 321 -315 0
1 -321 245 0
1 321 -243 0
1 -330 -364 0
1 -330 331 0
1 -330 -317 0
1 330 -365 0
1 330 314 0
1 330 366 0
1 -331 364 0
1 -331 274 0
1 -331 -362 0
1 -331 317 0
1 331 315 0
1 -331 359 0
1 331 367 0
1 -331 -351 0
1 -331 -314 0
1 331 -366 0
1 -366 -331 0
1 366 -329 0
1 -366 356 0
1 -366 -368 0
1 359 -331 0
1 359 -322 0
1 -359 232 0
1 -359 -323 0
1 359 356 0
1 -359 -368 0
1 -314 360 0
1 314 -331 0
1 314 -321 0
1 314 315 0
1 314 369 0
1 -314 -323 0
1 314 356 0
1 315 331 0
1 315 -321 0
1 -315 -322 0
1 -315 233 0
1 -315 -330 0
1 -315 -323 0
1 315 -356 0
1 -329 -328 0
1 -329 -370 0
1 329 318 0
1 329 367 0
1 329 272 0
1 -329 365 0
1 329 -319 0
1 -329 326 0
1 -329 -366 0
1 -328 269 0
1 328 -370 0
1 -328 -318 0
1 328 365 0
1 -328 -366 0
1 371 -327 0
1 368 327 0
1 368 359 0
1 -368 366 0
1 370 329 0
1 370 -365 0
1 370 330 0
1 370 -368 0
1 365 -328 0
1 365 -243 0
1 -365 329 0
1 365 368 0
1 364 309 0
1 364 -328 0
1 -364 -330 0
1 -364 368 0
1 -367 364 0
1 367 -331 0
1 367 245 0
1 -367 -371 0
1 -347 -344 0
1 347 341 0
1 -347 -345 0
1 347 313 0
1 -347 342 0
1 347 295 0
1 346 340 0
1 346 -348 0
1 -346 -312 0
1 346 -372 0
1 346 -341 0
1 346 347 0
1 -346 343 0
1 -373 -374 0
1 -373 372 0
1 -373 -375 0
1 357 -372 0
1 -357 -376 0
1 -375 346 0
1 375 -363 0
1 -375 347 0
1 342 346 0
1 -342 -373 0
1 -342 -347 0
1 -372 -357 0
1 372 -337 0
1 372 373 0
1 343 -346 0
1 343 -339 0
1 363 -377 0
1 -363 -348 0
1 363 -355 0
1 -363 349 0
1 -363 375 0
1 363 -378 0
1 363 323 0
1 363 -353 0
1 -355 377 0
1 355 348 0
1 355 349 0
1 355 -375 0
1 -355 -345 0
1 355 -363 0
1 -361 -374 0
1 361 -377 0
1 -361 -362 0
1 -361 349 0
1 -361 378 0
1 361 376 0
1 -361 -354 0
1 362 -374 0
1 -362 -331 0
1 -362 379 0
1 362 -375 0
1 -362 -376 0
1 362 361 0
1 -362 -342 0
1 -376 380 0
1 376 -360 0
1 376 -341 0
1 377 -340 0
1 377 357 0
1 -377 -369 0
1 377 -376 0
1 377 363 0
1 -377 373 0
1 378 -374 0
1 378 -362 0
1 378 -355 0
1 378 -344 0
1 -378 -373 0
1 374 -362 0
1 -374 -357 0
1 -374 -378 0
1 374 363 0
1 381 349 0
1 381 350 0
1 -381 315 0
1 381 -329 0
1 -381 -376 0
1 -381 -382 0
1 -381 314 0
1 360 -377 0
1 360 -383 0
1 360 349 0
1 360 -382 0
1 -360 358 0
1 -360 -314 0
1 369 -383 0
1 369 315 0
1 369 371 0
1 -369 382 0
1 -369 314 0
1 -380 376 0
1 380 314 0
1 354 -360 0
1 -354 -369 0
1 354 353 0
1 383 369 0
1 -383 -381 0
1 -383 361 0
1 -383 -354 0
1 -382 -369 0
1 382 381 0
1 -382 -361 0
1 379 -380 0
1 379 -360 0
1 379 362 0
1 379 -369 0
1 -379 -361 0
1 379 382 0
